<number of tasks>
50

<cycle time>
1000

<order strength>
0.896


<task times>
1 70
2 112
3 123
4 225
5 91
6 113
7 466
8 443
9 192
10 238
11 78
12 30
13 229
14 282
15 315
16 145
17 550
18 552
19 101
20 93
21 148
22 83
23 343
24 339
25 266
26 255
27 147
28 32
29 68
30 151
31 52
32 106
33 192
34 26
35 58
36 50
37 175
38 23
39 286
40 317
41 298
42 49
43 87
44 305
45 425
46 131
47 289
48 278
49 36
50 31

<precedence relations>
1,3
2,3
3,4
3,5
3,6
4,7
4,8
4,9
4,10
5,7
5,8
5,9
5,10
6,7
6,8
6,9
6,10
7,11
7,12
7,13
8,11
8,12
8,13
9,11
9,12
9,13
10,11
10,12
10,13
11,14
11,15
11,16
12,14
12,15
12,16
13,14
13,15
13,16
14,17
14,18
14,19
14,20
15,17
15,18
15,19
15,20
16,17
16,18
16,19
16,20
17,21
17,22
18,21
18,22
19,21
19,22
20,21
20,22
21,23
21,24
21,25
21,26
22,23
22,24
22,25
22,26
23,27
23,28
23,29
23,30
24,27
24,28
24,29
24,30
25,27
25,28
25,29
25,30
26,27
26,28
26,29
26,30
27,33
28,38
29,31
29,32
30,46
30,49
30,50
31,33
31,34
31,35
32,33
32,34
32,35
33,36
33,37
33,39
34,36
34,37
35,38
36,42
37,41
37,42
38,40
38,41
38,42
39,41
41,48
42,43
43,44
43,45
43,46
44,47
45,48
47,49
48,50

<end>
